<?xml version = "1.0" encoding="UTF-8" standalone="yes"?>
<CPLEXSolution version="1.2">
 <header
   problemName="inst_11_cut_n12"
   objectiveValue="59.389610389610382"
   solutionTypeValue="1"
   solutionTypeString="basic"
   solutionStatusValue="1"
   solutionStatusString="optimal"
   solutionMethodString="primal"
   primalFeasible="1"
   dualFeasible="1"
   simplexIterations="0"
   writeLevel="1"/>
 <quality
   epRHS="9.9999999999999995e-07"
   epOpt="9.9999999999999995e-07"
   maxPrimalInfeas="0"
   maxDualInfeas="0"
   maxPrimalResidual="2.8421709430404007e-14"
   maxDualResidual="7.1054273576010019e-15"
   maxX="1.1298701298701559"
   maxPi="1.9246753246753248"
   maxSlack="547.46753246753246"
   maxRedCost="82.675324675324688"
   kappa="520.29795243806359"/>
 <linearConstraints>
  <constraint name="c0" index="0" status="LL" slack="0" dual="-0"/>
  <constraint name="c1" index="1" status="BS" slack="326.75324675324674" dual="-0"/>
  <constraint name="c2" index="2" status="BS" slack="29.376623376623385" dual="-0"/>
  <constraint name="c3" index="3" status="BS" slack="236.19480519480524" dual="-0"/>
  <constraint name="c4" index="4" status="BS" slack="1.246753246753237" dual="-0"/>
  <constraint name="c5" index="5" status="BS" slack="512.79220779220782" dual="-0"/>
  <constraint name="c6" index="6" status="BS" slack="471.51948051948051" dual="-0"/>
  <constraint name="c7" index="7" status="BS" slack="429.58441558441558" dual="-0"/>
  <constraint name="c8" index="8" status="BS" slack="312.84415584415586" dual="-0"/>
  <constraint name="c9" index="9" status="BS" slack="38.623376623376615" dual="-0"/>
  <constraint name="c10" index="10" status="BS" slack="442.15584415584414" dual="-0"/>
  <constraint name="c11" index="11" status="BS" slack="547.46753246753246" dual="-0"/>
  <constraint name="c12" index="12" status="BS" slack="482.15584415584419" dual="-0"/>
  <constraint name="c13" index="13" status="BS" slack="166.02597402597402" dual="-0"/>
  <constraint name="cut_1" index="14" status="BS" slack="0.7532467532467777" dual="-0"/>
  <constraint name="cut_2" index="15" status="BS" slack="0.62337662337661826" dual="-0"/>
  <constraint name="cut_3" index="16" status="LL" slack="0" dual="1.9246753246753248"/>
  <constraint name="cut_4" index="17" status="BS" slack="0.18181818181817988" dual="-0"/>
  <constraint name="cut_5" index="18" status="BS" slack="0.79220779220778281" dual="-0"/>
  <constraint name="cut_6" index="19" status="BS" slack="0.33766233766237086" dual="-0"/>
  <constraint name="cut_7" index="20" status="BS" slack="0.10389610389610482" dual="-0"/>
  <constraint name="cut_8" index="21" status="BS" slack="0.79220779220780813" dual="-0"/>
  <constraint name="cut_9" index="22" status="BS" slack="0.53246753246752476" dual="-0"/>
  <constraint name="cut_10" index="23" status="LL" slack="0" dual="0.86233766233766196"/>
  <constraint name="cut_11" index="24" status="BS" slack="0.22077922077920498" dual="-0"/>
  <constraint name="cut_12" index="25" status="BS" slack="1.1558441558441039" dual="-0"/>
 </linearConstraints>
 <variables>
  <variable name="x0" index="0" status="LL" value="0" reducedCost="-38.189610389610365"/>
  <variable name="x1" index="1" status="LL" value="0" reducedCost="-25.423376623376623"/>
  <variable name="x2" index="2" status="LL" value="0" reducedCost="-43.002597402597388"/>
  <variable name="x3" index="3" status="LL" value="0" reducedCost="-82.675324675324688"/>
  <variable name="x4" index="4" status="BS" value="0.37662337662337692" reducedCost="0"/>
  <variable name="x5" index="5" status="BS" value="0.4545454545454542" reducedCost="0"/>
  <variable name="s0" index="6" status="BS" value="1.1298701298701559" reducedCost="0"/>
  <variable name="s1" index="7" status="LL" value="0" reducedCost="0"/>
  <variable name="s2" index="8" status="LL" value="0" reducedCost="0"/>
  <variable name="s3" index="9" status="LL" value="0" reducedCost="0"/>
  <variable name="s4" index="10" status="LL" value="0" reducedCost="0"/>
  <variable name="s5" index="11" status="LL" value="0" reducedCost="0"/>
  <variable name="s6" index="12" status="LL" value="0" reducedCost="0"/>
  <variable name="s7" index="13" status="LL" value="0" reducedCost="0"/>
  <variable name="s8" index="14" status="LL" value="0" reducedCost="0"/>
  <variable name="s9" index="15" status="LL" value="0" reducedCost="0"/>
  <variable name="s10" index="16" status="LL" value="0" reducedCost="0"/>
  <variable name="s11" index="17" status="LL" value="0" reducedCost="0"/>
  <variable name="s12" index="18" status="LL" value="0" reducedCost="0"/>
  <variable name="s13" index="19" status="LL" value="0" reducedCost="0"/>
 </variables>
 <objectiveValues>
  <objective index="0" name="" value="59.389610389610382"/>
 </objectiveValues>
</CPLEXSolution>
